
--- Job 6_node_2.gms Start 01/05/22 23:39:54 34.2.0 r6925a71 WEX-WEI x86 64bit/MS Windows
--- Applying:
    C:\GAMS\34\gmsprmNT.txt
--- GAMS Parameters defined
    Input "Z:\MitarbeiterOrdner\Bernecker\GitHub Desktop Project Foulder\SARO-Dunkelflaute\ARO_6nodeTest\6_node_2.gms"
    PageSize 0
    ScrDir "Z:\MitarbeiterOrdner\Bernecker\GitHub Desktop Project Foulder\SARO-Dunkelflaute\ARO_6nodeTest\225a\"
    SysDir C:\GAMS\34\
    LogOption 3
    ErrMsg 1
    ErrorLog 99
    IDE 1
    LstTitleLeftAligned 1
Licensee: Small MUD - 5 User License                     S201118/0001AN-WIN
          BTU Cottbus-Senftenberg, FG Energiewirtschaft              DC5591
          C:\Users\berne\Documents\GAMS\gamslice.txt
GAMS 34.2.0   Copyright (C) 1987-2021 GAMS Development. All rights reserved
--- Starting compilation
--- 6_node_2.gms(446) 3 Mb
--- Starting execution: elapsed 0:00:00.954
--- Generating MIP model Master
--- 6_node_2.gms(416) 4 Mb
---   2 rows  8 columns  14 non-zeroes
---   6 discrete-columns
--- Executing CPLEX (Solvelink=2): elapsed 0:00:02.934

IBM ILOG CPLEX   34.2.0 r6925a71 Released Feb 05, 2021 WEI x86 64bit/MS Window

--- GAMS/Cplex Link licensed for continuous and discrete problems.
--- GMO memory 0.50 Mb (peak 0.50 Mb)
--- Dictionary memory 0.00 Mb
--- Cplex 20.1.0.0 link memory 0.00 Mb (peak 0.00 Mb)
--- Starting Cplex

Version identifier: 20.1.0.0 | 2020-11-10 | 9bedb6d68
CPXPARAM_Advance                                 0
CPXPARAM_Simplex_Display                         2
CPXPARAM_Threads                                 1
CPXPARAM_MIP_Display                             4
CPXPARAM_MIP_Tolerances_AbsMIPGap                0
Generic callback                                 0x50
Found incumbent of value 0.000000 after 0.01 sec. (0.00 ticks)

Root node processing (before b&c):
  Real time             =    0.01 sec. (0.00 ticks)
Sequential b&c:
  Real time             =    0.00 sec. (0.00 ticks)
                          ------------
Total (root+branch&cut) =    0.01 sec. (0.00 ticks)

--- MIP status (101): integer optimal solution.
--- Cplex Time: 0.01sec (det. 0.00 ticks)

--- Fixing integer variables and solving final LP...

Version identifier: 20.1.0.0 | 2020-11-10 | 9bedb6d68
CPXPARAM_Advance                                 2
CPXPARAM_Simplex_Display                         2
CPXPARAM_Threads                                 1
CPXPARAM_MIP_Display                             4
CPXPARAM_MIP_Tolerances_AbsMIPGap                0
Tried aggregator 1 time.
LP Presolve eliminated 1 rows and 8 columns.
All rows and columns eliminated.
Presolve time = 0.00 sec. (0.00 ticks)

--- Fixed MIP status (1): optimal.
--- Cplex Time: 0.02sec (det. 0.00 ticks)


Proven optimal solution
MIP Solution:            0.000000    (0 iterations, 0 nodes)
Final Solve:             0.000000    (0 iterations)

Best possible:           0.000000
Absolute gap:            0.000000
Relative gap:            0.000000

--- Reading solution for model Master
--- 6_node_2.gms(416) 4 Mb  4 secs
--- Executing after solve: elapsed 0:00:05.769
--- 6_node_2.gms(417) 4 Mb
--- GDX File (execute_unload) Z:\MitarbeiterOrdner\Bernecker\GitHub Desktop Project Foulder\SARO-Dunkelflaute\ARO_6nodeTest\check_Master.gdx
--- Generating MIP model Subproblem
--- 6_node_2.gms(444) 5 Mb
---   1,681 rows  2,425 columns  5,521 non-zeroes
---   264 discrete-columns
--- Executing CPLEX (Solvelink=2): elapsed 0:00:09.720

IBM ILOG CPLEX   34.2.0 r6925a71 Released Feb 05, 2021 WEI x86 64bit/MS Window

--- GAMS/Cplex Link licensed for continuous and discrete problems.
--- Space for names approximately 0.10 Mb
--- Use option 'names no' to turn use of names off
--- GMO memory 0.97 Mb (peak 0.99 Mb)
--- Dictionary memory 0.00 Mb
--- Cplex 20.1.0.0 link memory 0.07 Mb (peak 0.27 Mb)
--- Starting Cplex

Version identifier: 20.1.0.0 | 2020-11-10 | 9bedb6d68
CPXPARAM_Advance                                 0
CPXPARAM_Threads                                 1
CPXPARAM_MIP_Display                             4
CPXPARAM_MIP_Tolerances_AbsMIPGap                0
Generic callback                                 0x50
Found incumbent of value 69120.000000 after 0.00 sec. (0.11 ticks)
Tried aggregator 2 times.
MIP Presolve eliminated 1512 rows and 2281 columns.
MIP Presolve modified 96 coefficients.
Aggregator did 144 substitutions.
All rows and columns eliminated.
Presolve time = 0.01 sec. (2.29 ticks)

Root node processing (before b&c):
  Real time             =    0.03 sec. (2.50 ticks)
Sequential b&c:
  Real time             =    0.00 sec. (0.00 ticks)
                          ------------
Total (root+branch&cut) =    0.03 sec. (2.50 ticks)

--- MIP status (101): integer optimal solution.
--- Cplex Time: 0.03sec (det. 2.51 ticks)

--- Fixing integer variables and solving final LP...

Version identifier: 20.1.0.0 | 2020-11-10 | 9bedb6d68
CPXPARAM_Advance                                 2
CPXPARAM_Threads                                 1
CPXPARAM_MIP_Display                             4
CPXPARAM_MIP_Tolerances_AbsMIPGap                0
Tried aggregator 1 time.
LP Presolve eliminated 1584 rows and 2353 columns.
Aggregator did 72 substitutions.
All rows and columns eliminated.
Presolve time = 0.00 sec. (1.08 ticks)

--- Fixed MIP status (1): optimal.
--- Cplex Time: 0.00sec (det. 1.74 ticks)


Proven optimal solution
MIP Solution:    112946880.000000    (0 iterations, 0 nodes)
Final Solve:     112946880.000000    (0 iterations)

Best possible:   112946880.000000
Absolute gap:            0.000000
Relative gap:            0.000000

--- Reading solution for model Subproblem
--- 6_node_2.gms(444) 5 Mb  11 secs
--- Executing after solve: elapsed 0:00:19.128
--- 6_node_2.gms(445) 5 Mb
--- GDX File (execute_unload) Z:\MitarbeiterOrdner\Bernecker\GitHub Desktop Project Foulder\SARO-Dunkelflaute\ARO_6nodeTest\check_SUB.gdx
*** Status: Normal completion
--- Job 6_node_2.gms Stop 01/05/22 23:40:15 elapsed 0:00:20.457
